 1000 50
 1 1 1 1 1 1 1 1 1 1 1 1
 1 1 1 1 1 1 1 1 1 1 1 1
 1 1 1 1 1 1 1 1 1 1 1 1
 1 1 1 1 1 1 1 1 1 1 1 1
 1 1 1 1 1 1 1 1 1 1 1 1
 1 1 1 1 1 1 1 1 1 1 1 1
 1 1 1 1 1 1 1 1 1 1 1 1
 1 1 1 1 1 1 1 1 1 1 1 1
 1 1 1 1 1 1 1 1 1 1 1 1
 1 1 1 1 1 1 1 1 1 1 1 1
 1 1 1 1 1 1 1 1 1 1 1 1
 1 1 1 1 1 1 1 1 1 1 1 1
 1 1 1 1 1 1 1 1 1 1 1 1
 1 1 1 1 1 1 1 1 1 1 1 1
 1 1 1 1 1 1 1 1 1 1 1 1
 1 1 1 1 1 1 1 1 1 1 1 1
 1 1 1 1 1 1 1 1 1 1 1 1
 1 1 1 1 1 1 1 1 1 1 1 1
 1 1 1 1 1 1 1 1 1 1 1 1
 1 1 1 1 1 1 1 1 1 1 1 1
 1 1 1 1 1 1 1 1 1 1 1 1
 1 1 1 1 1 1 1 1 1 1 1 1
 1 1 1 1 1 1 1 1 1 1 1 1
 1 1 1 1 1 1 1 1 1 1 1 1
 1 1 1 1 1 1 1 1 1 1 1 1
 1 1 1 1 1 1 1 1 1 1 1 1
 1 1 1 1 1 1 1 1 1 1 1 1
 1 1 1 1 1 1 1 1 1 1 1 1
 1 1 1 1 1 1 1 1 1 1 1 1
 1 1 1 1 1 1 1 1 1 1 1 1
 1 1 1 1 1 1 1 1 1 1 1 1
 1 1 1 1 1 1 1 1 1 1 1 1
 1 1 1 1 1 1 1 1 1 1 1 1
 1 1 1 1 1 1 1 1 1 1 1 1
 1 1 1 1 1 1 1 1 1 1 1 1
 1 1 1 1 1 1 1 1 1 1 1 1
 1 1 1 1 1 1 1 1 1 1 1 1
 1 1 1 1 1 1 1 1 1 1 1 1
 1 1 1 1 1 1 1 1 1 1 1 1
 1 1 1 1 1 1 1 1 1 1 1 1
 1 1 1 1 1 1 1 1 1 1 1 1
 1 1 1 1 1 1 1 1 1 1 1 1
 1 1 1 1 1 1 1 1 1 1 1 1
 1 1 1 1 1 1 1 1 1 1 1 1
 1 1 1 1 1 1 1 1 1 1 1 1
 1 1 1 1 1 1 1 1 1 1 1 1
 1 1 1 1 1 1 1 1 1 1 1 1
 1 1 1 1 1 1 1 1 1 1 1 1
 1 1 1 1 1 1 1 1 1 1 1 1
 1 1 1 1 1 1 1 1 1 1 1 1
 1 1 1 1 1 1 1 1 1 1 1 1
 1 1 1 1 1 1 1 1 1 1 1 1
 1 1 1 1 1 1 1 1 1 1 1 1
 1 1 1 1 1 1 1 1 1 1 1 1
 1 1 1 1 1 1 1 1 1 1 1 1
 1 1 1 1 1 1 1 1 1 1 1 1
 1 1 1 1 1 1 1 1 1 1 1 1
 1 1 1 1 1 1 1 1 1 1 1 1
 1 1 1 1 1 1 1 1 1 1 1 1
 1 1 1 1 1 1 1 1 1 1 1 1
 1 1 1 1 1 1 1 1 1 1 1 1
 1 1 1 1 1 1 1 1 1 1 1 1
 1 1 1 1 1 1 1 1 1 1 1 1
 1 1 1 1 1 1 1 1 1 1 1 1
 1 1 1 1 1 1 1 1 1 1 1 1
 1 1 1 1 1 1 1 1 1 1 1 1
 1 1 1 1 1 1 1 1 1 1 1 1
 1 1 1 1 1 1 1 1 1 1 1 1
 1 1 1 1 1 1 1 1 1 1 1 1
 1 1 1 1 1 1 1 1 1 1 1 1
 1 1 1 1 1 1 1 1 1 1 1 1
 1 1 1 1 1 1 1 1 1 1 1 1
 1 1 1 1 1 1 1 1 1 1 1 1
 1 1 1 1 1 1 1 1 1 1 1 1
 1 1 1 1 1 1 1 1 1 1 1 1
 1 1 1 1 1 1 1 1 1 1 1 1
 1 1 1 1 1 1 1 1 1 1 1 1
 1 1 1 1 1 1 1 1 1 1 1 1
 1 1 1 1 1 1 1 1 1 1 1 1
 1 1 1 1 1 1 1 1 1 1 1 1
 1 1 1 1 1 1 1 1 1 1 1 1
 1 1 1 1 1 1 1 1 1 1 1 1
 1 1 1 1 1 1 1 1 1 1 1 1
 1 1 1 1 1 1 1 1 1 1 1 1
 1 1 1 1 1 1 1 1 1 1 1 1
 1 1 1 1 1 1 1 1 1 1 1 1
 1 1 1 1 1 1 1 1 1 1 1 1
 1 1 1 1 1 1 1 1 1 1 1 1
 1 1 1 1 1 1 1 1 1 1 1 1
 1 1 1 1 1 1 1 1 1 1 1 1
 1 1 1 1 1 1 1 1 1 1 1 1
 1 1 1 1 1 1 1 1 1 1 1 1
 1 1 1 1 1 1 1 1 1 1 1 1
 1 1 1 1 1 1 1 1 1 1 1 1
 1 1 1 1 1 1 1 1 1 1 1 1
 1 1 1 1 1 1 1 1 1 1 1 1
 1 1 1 1 1 1 1 1 1 1 1 1
 1 1 1 1 1 1 1 1 1 1 1 1
 1 1 1 1 1 1 1 1 1 1 1 1
 1 1 1 1 1 1 1 1 1 1 1 1
 1 1 1 1 1 1 1 1 1 1 1 1
 1 1 1 1 1 1 1 1 1 1 1 1
 1 1 1 1 1 1 1 1 1 1 1 1
 1 1 1 1 1 1 1 1 1 1 1 1
 1 1 1 1 1 1 1 1 1 1 1 1
 1 1 1 1 1 1 1 1 1 1 1 1
 1 1 1 1 1 1 1 1 1 1 1 1
 1 1 1 1 1 1 1 1 1 1 1 1
 1 1 1 1 1 1 1 1 1 1 1 1
 1 1 1 1 1 1 1 1 1 1 1 1
 1 1 1 1 1 1 1 1 1 1 1 1
 1 1 1 1 1 1 1 1 1 1 1 1
 1 1 1 1 1 1 1 1 1 1 1 1
 1 1 1 1 1 1 1 1 1 1 1 1
 1 1 1 1 1 1 1 1 1 1 1 1
 1 1 1 1 1 1 1 1 1 1 1 1
 1 1 1 1 1 1 1 1 1 1 1 1
 1 1 1 1 1 1 1 1 1 1 1 1
 1 1 1 1 1 1 1 1 1 1 1 1
 1 1 1 1 1 1 1 1 1 1 1 1
 1 1 1 1 1 1 1 1 1 1 1 1
 1 1 1 1 1 1 1 1 1 1 1 1
 1 1 1 1 1 1 1 1 1 1 1 1
 1 1 1 1 1 1 1 1 1 1 1 1
 1 1 1 1 1 1 1 1 1 1 1 1
 1 1 1 1 1 1 1 1 1 1 1 1
 1 1 1 1 1 1 1 1 1 1 1 1
 1 1 1 1 1 1 1 1 1 1 1 1
 1 1 1 1 1 1 1 1 1 1 1 1
 1 1 1 1 1 1 1 1 1 1 1 1
 1 1 1 1 1 1 1 1 1 1 1 1
 1 1 1 1 1 1 1 1 1 1 1 1
 1 1 1 1 1 1 1 1 1 1 1 1
 1 1 1 1 1 1 1 1 1 1 1 1
 1 1 1 1 1 1 1 1 1 1 1 1
 1 1 1 1 1 1 1 1 1 1 1 1
 1 1 1 1 1 1 1 1 1 1 1 1
 1 1 1 1 1 1 1 1 1 1 1 1
 1 1 1 1 1 1 1 1 1 1 1 1
 1 1 1 1 1 1 1 1 1 1 1 1
 1 1 1 1 1 1 1 1 1 1 1 1
 1 1 1 1 1 1 1 1 1 1 1 1
 1 1 1 1 1 1 1 1 1 1 1 1
 1 1 1 1 1 1 1 1 1 1 1 1
 1 1 1 1 1 1 1 1 1 1 1 1
 1 1 1 1 1 1 1 1 1 1 1 1
 1 1 1 1 1 1 1 1 1 1 1 1
 1 1 1 1 1 1 1 1 1 1 1 1
 1 1 1 1 1 1 1 1 1 1 1 1
 1 1 1 1 1 1 1 1 1 1 1 1
 1 1 1 1 1 1 1 1 1 1 1 1
 1 1 1 1 1 1 1 1 1 1 1 1
 1 1 1 1 1 1 1 1 1 1 1 1
 1 1 1 1 1 1 1 1 1 1 1 1
 1 1 1 1 1 1 1 1 1 1 1 1
 1 1 1 1 1 1 1 1 1 1 1 1
 1 1 1 1 1 1 1 1 1 1 1 1
 1 1 1 1 1 1 1 1 1 1 1 1
 1 1 1 1 1 1 1 1 1 1 1 1
 1 1 1 1 1 1 1 1 1 1 1 1
 1 1 1 1 1 1 1 1 1 1 1 1
 1 1 1 1 1 1 1 1 1 1 1 1
 1 1 1 1 1 1 1 1 1 1 1 1
 1 1 1 1 1 1 1 1 1 1 1 1
 1 1 1 1 1 1 1 1 1 1 1 1
 1 1 1 1 1 1 1 1 1 1 1 1
 1 1 1 1 1 1 1 1 1 1 1 1
 1 1 1 1 1 1 1 1 1 1 1 1
 1 1 1 1 1 1 1 1 1 1 1 1
 1 1 1 1 1 1 1 1 1 1 1 1
 1 1 1 1 1 1 1 1 1 1 1 1
 1 1 1 1 1 1 1 1 1 1 1 1
 1 1 1 1 1 1 1 1 1 1 1 1
 1 1 1 1 1 1 1 1 1 1 1 1
 1 1 1 1 1 1 1 1 1 1 1 1
 1 1 1 1 1 1 1 1 1 1 1 1
 1 1 1 1 1 1 1 1 1 1 1 1
 1 1 1 1 1 1 1 1 1 1 1 1
 1 1 1 1 1 1 1 1 1 1 1 1
 1 1 1 1 1 1 1 1 1 1 1 1
 1 1 1 1 1 1 1 1 1 1 1 1
 1 1 1 1 1 1 1 1 1 1 1 1
 1 1 1 1 1 1 1 1 1 1 1 1
 1 1 1 1 1 1 1 1 1 1 1 1
 1 1 1 1 1 1 1 1 1 1 1 1
 1 1 1 1 1 1 1 1 1 1 1 1
 1 1 1 1 1 1 1 1 1 1 1 1
 1 1 1 1 1 1 1 1 1 1 1 1
 1 1 1 1 1 1 1 1 1 1 1 1
 1 1 1 1 1 1 1 1 1 1 1 1
 1 1 1 1 1 1 1 1 1 1 1 1
 1 1 1 1 1 1 1 1 1 1 1 1
 1 1 1 1 1 1 1 1 1 1 1 1
 1 1 1 1 1 1 1 1 1 1 1 1
 1 1 1 1 1 1 1 1 1 1 1 1
 1 1 1 1 1 1 1 1 1 1 1 1
 1 1 1 1 1 1 1 1 1 1 1 1
 1 1 1 1 1 1 1 1 1 1 1 1
 1 1 1 1 1 1 1 1 1 1 1 1
 1 1 1 1 1 1 1 1 1 1 1 1
 1 1 1 1 1 1 1 1 1 1 1 1
 1 1 1 1 1 1 1 1 1 1 1 1
 1 1 1 1 1 1 1 1 1 1 1 1
 1 1 1 1 1 1 1 1 1 1 1 1
 1 1 1 1 1 1 1 1 1 1 1 1
 1 1 1 1 1 1 1 1 1 1 1 1
 1 1 1 1 1 1 1 1 1 1 1 1
 1 1 1 1 1 1 1 1 1 1 1 1
 1 1 1 1 1 1 1 1 1 1 1 1
 1 1 1 1 1 1 1 1 1 1 1 1
 1 1 1 1 1 1 1 1 1 1 1 1
 1 1 1 1 1 1 1 1 1 1 1 1
 1 1 1 1 1 1 1 1 1 1 1 1
 1 1 1 1 1 1 1 1 1 1 1 1
 1 1 1 1 1 1 1 1 1 1 1 1
 1 1 1 1 1 1 1 1 1 1 1 1
 1 1 1 1 1 1 1 1 1 1 1 1
 1 1 1 1 1 1 1 1 1 1 1 1
 1 1 1 1 1 1 1 1 1 1 1 1
 1 1 1 1 1 1 1 1 1 1 1 1
 1 1 1 1 1 1 1 1 1 1 1 1
 1 1 1 1 1 1 1 1 1 1 1 1
 1 1 1 1 1 1 1 1 1 1 1 1
 1 1 1 1 1 1 1 1 1 1 1 1
 1 1 1 1 1 1 1 1 1 1 1 1
 1 1 1 1 1 1 1 1 1 1 1 1
 1 1 1 1 1 1 1 1 1 1 1 1
 1 1 1 1 1 1 1 1 1 1 1 1
 1 1 1 1 1 1 1 1 1 1 1 1
 1 1 1 1 1 1 1 1 1 1 1 1
 1 1 1 1 1 1 1 1 1 1 1 1
 1 1 1 1 1 1 1 1 1 1 1 1
 1 1 1 1 1 1 1 1 1 1 1 1
 1 1 1 1 1 1 1 1 1 1 1 1
 1 1 1 1 1 1 1 1 1 1 1 1
 1 1 1 1 1 1 1 1 1 1 1 1
 1 1 1 1 1 1 1 1 1 1 1 1
 1 1 1 1 1 1 1 1 1 1 1 1
 1 1 1 1 1 1 1 1 1 1 1 1
 1 1 1 1 1 1 1 1 1 1 1 1
 1 1 1 1 1 1 1 1 1 1 1 1
 1 1 1 1 1 1 1 1 1 1 1 1
 1 1 1 1 1 1 1 1 1 1 1 1
 1 1 1 1 1 1 1 1 1 1 1 1
 1 1 1 1 1 1 1 1 1 1 1 1
 1 1 1 1 1 1 1 1 1 1 1 1
 1 1 1 1 1 1 1 1 1 1 1 1
 1 1 1 1 1 1 1 1 1 1 1 1
 1 1 1 1 1 1 1 1 1 1 1 1
 1 1 1 1 1 1 1 1 1 1 1 1
 1 1 1 1 1 1 1 1 1 1 1 1
 1 1 1 1 1 1 1 1 1 1 1 1
 1 1 1 1 1 1 1 1 1 1 1 1
 1 1 1 1 1 1 1 1 1 1 1 1
 1 1 1 1 1 1 1 1 1 1 1 1
 1 1 1 1 1 1 1 1 1 1 1 1
 1 1 1 1 1 1 1 1 1 1 1 1
 1 1 1 1 1 1 1 1 1 1 1 1
 1 1 1 1 1 1 1 1 1 1 1 1
 1 1 1 1 1 1 1 1 1 1 1 1
 1 1 1 1 1 1 1 1 1 1 1 1
 1 1 1 1 1 1 1 1 1 1 1 1
 1 1 1 1 1 1 1 1 1 1 1 1
 1 1 1 1 1 1 1 1 1 1 1 1
 1 1 1 1 1 1 1 1 1 1 1 1
 1 1 1 1 1 1 1 1 1 1 1 1
 1 1 1 1 1 1 1 1 1 1 1 1
 1 1 1 1 1 1 1 1 1 1 1 1
 1 1 1 1 1 1 1 1 1 1 1 1
 1 1 1 1 1 1 1 1 1 1 1 1
 1 1 1 1 1 1 1 1 1 1 1 1
 1 1 1 1 1 1 1 1 1 1 1 1
 1 1 1 1 1 1 1 1 1 1 1 1
 1 1 1 1 1 1 1 1 1 1 1 1
 1 1 1 1 1 1 1 1 1 1 1 1
 1 1 1 1 1 1 1 1 1 1 1 1
 1 1 1 1 1 1 1 1 1 1 1 1
 1 1 1 1 1 1 1 1 1 1 1 1
 1 1 1 1 1 1 1 1 1 1 1 1
 1 1 1 1 1 1 1 1 1 1 1 1
 1 1 1 1 1 1 1 1 1 1 1 1
 1 1 1 1 1 1 1 1 1 1 1 1
 1 1 1 1 1 1 1 1 1 1 1 1
 1 1 1 1 1 1 1 1 1 1 1 1
 1 1 1 1 1 1 1 1 1 1 1 1
 1 1 1 1 1 1 1 1 1 1 1 1
 1 1 1 1 1 1 1 1 1 1 1 1
 1 1 1 1 1 1 1 1 1 1 1 1
 1 1 1 1 1 1 1 1 1 1 1 1
 1 1 1 1 1 1 1 1 1 1 1 1
 1 1 1 1 1 1 1 1 1 1 1 1
 1 1 1 1 1 1 1 1 1 1 1 1
 1 1 1 1 1 1 1 1 1 1 1 1
 1 1 1 1 1 1 1 1 1 1 1 1
 1 1 1 1 1 1 1 1 1 1 1 1
 1 1 1 1 1 1 1 1 1 1 1 1
 1 1 1 1 1 1 1 1 1 1 1 1
 1 1 1 1 1 1 1 1 1 1 1 1
 1 1 1 1 1 1 1 1 1 1 1 1
 1 1 1 1 1 1 1 1 1 1 1 1
 1 1 1 1 1 1 1 1 1 1 1 1
 1 1 1 1 1 1 1 1 1 1 1 1
 1 1 1 1 1 1 1 1 1 1 1 1
 1 1 1 1 1 1 1 1 1 1 1 1
 1 1 1 1 1 1 1 1 1 1 1 1
 1 1 1 1 1 1 1 1 1 1 1 1
 1 1 1 1 1 1 1 1 1 1 1 1
 1 1 1 1 1 1 1 1 1 1 1 1
 1 1 1 1 1 1 1 1 1 1 1 1
 1 1 1 1 1 1 1 1 1 1 1 1
 1 1 1 1 1 1 1 1 1 1 1 1
 1 1 1 1 1 1 1 1 1 1 1 1
 1 1 1 1 1 1 1 1 1 1 1 1
 1 1 1 1 1 1 1 1 1 1 1 1
 1 1 1 1 1 1 1 1 1 1 1 1
 1 1 1 1 1 1 1 1 1 1 1 1
 1 1 1 1 1 1 1 1 1 1 1 1
 1 1 1 1 1 1 1 1 1 1 1 1
 1 1 1 1 1 1 1 1 1 1 1 1
 1 1 1 1 1 1 1 1 1 1 1 1
 1 1 1 1 1 1 1 1 1 1 1 1
 1 1 1 1 1 1 1 1 1 1 1 1
 1 1 1 1 1 1 1 1 1 1 1 1
 1 1 1 1 1 1 1 1 1 1 1 1
 1 1 1 1 1 1 1 1 1 1 1 1
 1 1 1 1 1 1 1 1 1 1 1 1
 1 1 1 1 1 1 1 1 1 1 1 1
 1 1 1 1 1 1 1 1 1 1 1 1
 1 1 1 1 1 1 1 1 1 1 1 1
 1 1 1 1 1 1 1 1 1 1 1 1
 1 1 1 1 1 1 1 1 1 1 1 1
 1 1 1 1 1 1 1 1 1 1 1 1
 1 1 1 1 1 1 1 1 1 1 1 1
 1 1 1 1 1 1 1 1 1 1 1 1
 1 1 1 1 1 1 1 1 1 1 1 1
 1 1 1 1 1 1 1 1 1 1 1 1
 1 1 1 1 1 1 1 1 1 1 1 1
 1 1 1 1 1 1 1 1 1 1 1 1
 1 1 1 1 1 1 1 1 1 1 1 1
 1 1 1 1 1 1 1 1 1 1 1 1
 1 1 1 1 1 1 1 1 1 1 1 1
 1 1 1 1 1 1 1 1 1 1 1 1
 1 1 1 1 1 1 1 1 1 1 1 1
 1 1 1 1 1 1 1 1 1 1 1 1
 1 1 1 1 1 1 1 1 1 1 1 1
 1 1 1 1 1 1 1 1 1 1 1 1
 1 1 1 1 1 1 1 1 1 1 1 1
 1 1 1 1 1 1 1 1 1 1 1 1
 1 1 1 1 1 1 1 1 1 1 1 1
 1 1 1 1 1 1 1 1 1 1 1 1
 1 1 1 1 1 1 1 1 1 1 1 1
 1 1 1 1 1 1 1 1 1 1 1 1
 1 1 1 1 1 1 1 1 1 1 1 1
 1 1 1 1 1 1 1 1 1 1 1 1
 1 1 1 1 1 1 1 1 1 1 1 1
 1 1 1 1 1 1 1 1 1 1 1 1
 1 1 1 1 1 1 1 1 1 1 1 1
 1 1 1 1 1 1 1 1 1 1 1 1
 1 1 1 1 1 1 1 1 1 1 1 1
 1 1 1 1 1 1 1 1 1 1 1 1
 1 1 1 1 1 1 1 1 1 1 1 1
 1 1 1 1 1 1 1 1 1 1 1 1
 1 1 1 1 1 1 1 1 1 1 1 1
 1 1 1 1 1 1 1 1 1 1 1 1
 1 1 1 1 1 1 1 1 1 1 1 1
 1 1 1 1 1 1 1 1 1 1 1 1
 1 1 1 1 1 1 1 1 1 1 1 1
 1 1 1 1 1 1 1 1 1 1 1 1
 1 1 1 1 1 1 1 1 1 1 1 1
 1 1 1 1 1 1 1 1 1 1 1 1
 1 1 1 1 1 1 1 1 1 1 1 1
 1 1 1 1 1 1 1 1 1 1 1 1
 1 1 1 1 1 1 1 1 1 1 1 1
 1 1 1 1 1 1 1 1 1 1 1 1
 1 1 1 1 1 1 1 1 1 1 1 1
 1 1 1 1 1 1 1 1 1 1 1 1
 1 1 1 1 1 1 1 1 1 1 1 1
 1 1 1 1 1 1 1 1 1 1 1 1
 1 1 1 1 1 1 1 1 1 1 1 1
 1 1 1 1 1 1 1 1 1 1 1 1
 1 1 1 1 1 1 1 1 1 1 1 1
 1 1 1 1 1 1 1 1 1 1 1 1
 1 1 1 1 1 1 1 1 1 1 1 1
 1 1 1 1 1 1 1 1 1 1 1 1
 1 1 1 1 1 1 1 1 1 1 1 1
 1 1 1 1 1 1 1 1 1 1 1 1
 1 1 1 1 1 1 1 1 1 1 1 1
 1 1 1 1 1 1 1 1 1 1 1 1
 1 1 1 1 1 1 1 1 1 1 1 1
 1 1 1 1 1 1 1 1 1 1 1 1
 1 1 1 1 1 1 1 1 1 1 1 1
 1 1 1 1 1 1 1 1 1 1 1 1
 1 1 1 1 1 1 1 1 1 1 1 1
 1 1 1 1 1 1 1 1 1 1 1 1
 1 1 1 1 1 1 1 1 1 1 1 1
 1 1 1 1 1 1 1 1 1 1 1 1
 1 1 1 1 1 1 1 1 1 1 1 1
 1 1 1 1 1 1 1 1 1 1 1 1
 1 1 1 1 1 1 1 1 1 1 1 1
 1 1 1 1 1 1 1 1 1 1 1 1
 1 1 1 1 1 1 1 1 1 1 1 1
 1 1 1 1 1 1 1 1 1 1 1 1
 1 1 1 1 1 1 1 1 1 1 1 1
 1 1 1 1 1 1 1 1 1 1 1 1
 1 1 1 1 1 1 1 1 1 1 1 1
 1 1 1 1 1 1 1 1 1 1 1 1
 1 1 1 1 1 1 1 1 1 1 1 1
 1 1 1 1 1 1 1 1 1 1 1 1
 1 1 1 1 1 1 1 1 1 1 1 1
 1 1 1 1 1 1 1 1 1 1 1 1
 1 1 1 1 1 1 1 1 1 1 1 1
 1 1 1 1 1 1 1 1 1 1 1 1
 1 1 1 1 1 1 1 1 1 1 1 1
 1 1 1 1 1 1 1 1 1 1 1 1
 1 1 1 1 1 1 1 1 1 1 1 1
 1 1 1 1 1 1 1 1 1 1 1 1
 1 1 1 1 1 1 1 1 1 1 1 1
 1 1 1 1 1 1 1 1 1 1 1 1
 1 1 1 1 1 1 1 1 1 1 1 1
 1 1 1 1 1 1 1 1 1 1 1 1
 1 1 1 1 1 1 1 1 1 1 1 1
 1 1 1 1 1 1 1 1 1 1 1 1
 1 1 1 1 1 1 1 1 1 1 1 1
 1 1 1 1 1 1 1 1 1 1 1 1
 1 1 1 1 1 1 1 1 1 1 1 1
 1 1 1 1 1 1 1 1 1 1 1 1
 1 1 1 1 1 1 1 1 1 1 1 1
 1 1 1 1 1 1 1 1 1 1 1 1
 1 1 1 1 1 1 1 1 1 1 1 1
 1 1 1 1 1 1 1 1 1 1 1 1
 1 1 1 1 1 1 1 1 1 1 1 1
 1 1 1 1 1 1 1 1 1 1 1 1
 1 1 1 1 1 1 1 1 1 1 1 1
 1 1 1 1 1 1 1 1 1 1 1 1
 1 1 1 1 1 1 1 1 1 1 1 1
 1 1 1 1 1 1 1 1 1 1 1 1
 1 1 1 1 1 1 1 1 1 1 1 1
 1 1 1 1 1 1 1 1 1 1 1 1
 1 1 1 1 1 1 1 1 1 1 1 1
 1 1 1 1 1 1 1 1 1 1 1 1
 1 1 1 1 1 1 1 1 1 1 1 1
 1 1 1 1 1 1 1 1 1 1 1 1
 1 1 1 1 1 1 1 1 1 1 1 1
 1 1 1 1 1 1 1 1 1 1 1 1
 1 1 1 1 1 1 1 1 1 1 1 1
 1 1 1 1 1 1 1 1 1 1 1 1
 1 1 1 1 1 1 1 1 1 1 1 1
 1 1 1 1 1 1 1 1 1 1 1 1
 1 1 1 1 1 1 1 1 1 1 1 1
 1 1 1 1 1 1 1 1 1 1 1 1
 1 1 1 1 1 1 1 1 1 1 1 1
 1 1 1 1 1 1 1 1 1 1 1 1
 1 1 1 1 1 1 1 1 1 1 1 1
 1 1 1 1 1 1 1 1 1 1 1 1
 1 1 1 1 1 1 1 1 1 1 1 1
 1 1 1 1 1 1 1 1 1 1 1 1
 1 1 1 1 1 1 1 1 1 1 1 1
 1 1 1 1 1 1 1 1 1 1 1 1
 1 1 1 1 1 1 1 1 1 1 1 1
 1 1 1 1 1 1 1 1 1 1 1 1
 1 1 1 1 1 1 1 1 1 1 1 1
 1 1 1 1 1 1 1 1 1 1 1 1
 1 1 1 1 1 1 1 1 1 1 1 1
 1 1 1 1 1 1 1 1 1 1 1 1
 1 1 1 1 1 1 1 1 1 1 1 1
 1 1 1 1 1 1 1 1 1 1 1 1
 1 1 1 1 1 1 1 1 1 1 1 1
 1 1 1 1 1 1 1 1 1 1 1 1
 1 1 1 1 1 1 1 1 1 1 1 1
 1 1 1 1 1 1 1 1 1 1 1 1
 1 1 1 1 1 1 1 1 1 1 1 1
 1 1 1 1 1 1 1 1 1 1 1 1
 1 1 1 1 1 1 1 1 1 1 1 1
 1 1 1 1 1 1 1 1 1 1 1 1
 1 1 1 1 1 1 1 1 1 1 1 1
 1 1 1 1 1 1 1 1 1 1 1 1
 1 1 1 1 1 1 1 1 1 1 1 1
 1 1 1 1 1 1 1 1 1 1 1 1
 1 1 1 1 1 1 1 1 1 1 1 1
 1 1 1 1 1 1 1 1 1 1 1 1
 1 1 1 1 1 1 1 1 1 1 1 1
 1 1 1 1 1 1 1 1 1 1 1 1
 1 1 1 1 1 1 1 1 1 1 1 1
 1 1 1 1 1 1 1 1 1 1 1 1
 1 1 1 1 1 1 1 1 1 1 1 1
 1 1 1 1 1 1 1 1 1 1 1 1
 1 1 1 1 1 1 1 1 1 1 1 1
 1 1 1 1 1 1 1 1 1 1 1 1
 1 1 1 1 1 1 1 1 1 1 1 1
 1 1 1 1 1 1 1 1 1 1 1 1
 1 1 1 1 1 1 1 1 1 1 1 1
 1 1 1 1 1 1 1 1 1 1 1 1
 1 1 1 1 1 1 1 1 1 1 1 1
 1 1 1 1 1 1 1 1 1 1 1 1
 1 1 1 1 1 1 1 1 1 1 1 1
 1 1 1 1 1 1 1 1 1 1 1 1
 1 1 1 1 1 1 1 1 1 1 1 1
 1 1 1 1 1 1 1 1 1 1 1 1
 1 1 1 1 1 1 1 1 1 1 1 1
 1 1 1 1 1 1 1 1 1 1 1 1
 1 1 1 1 1 1 1 1 1 1 1 1
 1 1 1 1 1 1 1 1 1 1 1 1
 1 1 1 1 1 1 1 1 1 1 1 1
 1 1 1 1 1 1 1 1 1 1 1 1
 1 1 1 1 1 1 1 1 1 1 1 1
 1 1 1 1 1 1 1 1 1 1 1 1
 1 1 1 1 1 1 1 1 1 1 1 1
 1 1 1 1 1 1 1 1 1 1 1 1
 1 1 1 1 1 1 1 1 1 1 1 1
 1 1 1 1 1 1 1 1 1 1 1 1
 1 1 1 1 1 1 1 1 1 1 1 1
 1 1 1 1 1 1 1 1 1 1 1 1
 1 1 1 1 1 1 1 1 1 1 1 1
 1 1 1 1 1 1 1 1 1 1 1 1
 1 1 1 1 1 1 1 1 1 1 1 1
 1 1 1 1 1 1 1 1 1 1 1 1
 1 1 1 1 1 1 1 1 1 1 1 1
 1 1 1 1 1 1 1 1 1 1 1 1
 1 1 1 1 1 1 1 1 1 1 1 1
 1 1 1 1 1 1 1 1 1 1 1 1
 1 1 1 1 1 1 1 1 1 1 1 1
 1 1 1 1 1 1 1 1 1 1 1 1
 1 1 1 1 1 1 1 1 1 1 1 1
 1 1 1 1 1 1 1 1 1 1 1 1
 1 1 1 1 1 1 1 1 1 1 1 1
 1 1 1 1 1 1 1 1 1 1 1 1
 1 1 1 1 1 1 1 1 1 1 1 1
 1 1 1 1 1 1 1 1 1 1 1 1
 1 1 1 1 1 1 1 1 1 1 1 1
 1 1 1 1 1 1 1 1 1 1 1 1
 1 1 1 1 1 1 1 1 1 1 1 1
 1 1 1 1 1 1 1 1 1 1 1 1
 1 1 1 1 1 1 1 1 1 1 1 1
 1 1 1 1 1 1 1 1 1 1 1 1
 1 1 1 1 1 1 1 1 1 1 1 1
 1 1 1 1 1 1 1 1 1 1 1 1
 1 1 1 1 1 1 1 1 1 1 1 1
 1 1 1 1 1 1 1 1 1 1 1 1
 1 1 1 1 1 1 1 1 1 1 1 1
 1 1 1 1 1 1 1 1 1 1 1 1
 1 1 1 1 1 1 1 1 1 1 1 1
 1 1 1 1 1 1 1 1 1 1 1 1
 1 1 1 1 1 1 1 1 1 1 1 1
 1 1 1 1 1 1 1 1 1 1 1 1
 1 1 1 1 1 1 1 1 1 1 1 1
 1 1 1 1 1 1 1 1 1 1 1 1
 1 1 1 1 1 1 1 1 1 1 1 1
 1 1 1 1 1 1 1 1 1 1 1 1
 1 1 1 1 1 1 1 1 1 1 1 1
 1 1 1 1 1 1 1 1 1 1 1 1
 1 1 1 1 1 1 1 1 1 1 1 1
 1 1 1 1 1 1 1 1 1 1 1 1
 1 1 1 1 1 1 1 1 1 1 1 1
 1 1 1 1 1 1 1 1 1 1 1 1
 1 1 1 1 1 1 1 1 1 1 1 1
 1 1 1 1 1 1 1 1 1 1 1 1
 1 1 1 1 1 1 1 1 1 1 1 1
 1 1 1 1 1 1 1 1 1 1 1 1
 1 1 1 1 1 1 1 1 1 1 1 1
 1 1 1 1 1 1 1 1 1 1 1 1
 1 1 1 1 1 1 1 1 1 1 1 1
 1 1 1 1 1 1 1 1 1 1 1 1
 1 1 1 1 1 1 1 1 1 1 1 1
 1 1 1 1 1 1 1 1 1 1 1 1
 1 1 1 1 1 1 1 1 1 1 1 1
 1 1 1 1 1 1 1 1 1 1 1 1
 1 1 1 1 1 1 1 1 1 1 1 1
 1 1 1 1 1 1 1 1 1 1 1 1
 1 1 1 1 1 1 1 1 1 1 1 1
 1 1 1 1 1 1 1 1 1 1 1 1
 1 1 1 1 1 1 1 1 1 1 1 1
 1 1 1 1 1 1 1 1 1 1 1 1
 1 1 1 1 1 1 1 1 1 1 1 1
 1 1 1 1 1 1 1 1 1 1 1 1
 1 1 1 1 1 1 1 1 1 1 1 1
 1 1 1 1 1 1 1 1 1 1 1 1
 1 1 1 1 1 1 1 1 1 1 1 1
 1 1 1 1 1 1 1 1 1 1 1 1
 1 1 1 1 1 1 1 1 1 1 1 1
 1 1 1 1 1 1 1 1 1 1 1 1
 1 1 1 1 1 1 1 1 1 1 1 1
 1 1 1 1 1 1 1 1 1 1 1 1
 1 1 1 1 1 1 1 1 1 1 1 1
 1 1 1 1 1 1 1 1 1 1 1 1
 1 1 1 1 1 1 1 1 1 1 1 1
 1 1 1 1 1 1 1 1 1 1 1 1
 1 1 1 1 1 1 1 1 1 1 1 1
 1 1 1 1 1 1 1 1 1 1 1 1
 1 1 1 1 1 1 1 1 1 1 1 1
 1 1 1 1 1 1 1 1 1 1 1 1
 1 1 1 1 1 1 1 1 1 1 1 1
 1 1 1 1 1 1 1 1 1 1 1 1
 1 1 1 1 1 1 1 1 1 1 1 1
 1 1 1 1 1 1 1 1 1 1 1 1
 1 1 1 1 1 1 1 1 1 1 1 1
 1 1 1 1 1 1 1 1 1 1 1 1
 1 1 1 1 1 1 1 1 1 1 1 1
 1 1 1 1 1 1 1 1 1 1 1 1
 1 1 1 1 1 1 1 1 1 1 1 1
 1 1 1 1 1 1 1 1 1 1 1 1
 1 1 1 1 1 1 1 1 1 1 1 1
 1 1 1 1 1 1 1 1 1 1 1 1
 1 1 1 1 1 1 1 1 1 1 1 1
 1 1 1 1 1 1 1 1 1 1 1 1
 1 1 1 1 1 1 1 1 1 1 1 1
 1 1 1 1 1 1 1 1 1 1 1 1
 1 1 1 1
 3
 12 30 37
 3
 12 30 37
 7
 3 14 25 26 27 28 39
 3
 12 30 37
 7
 3 14 25 26 27 28 39
 3
 12 30 37
 9
 3 7 8 10 14 28 35 41 47
 8
 1 3 7 14 20 21 28 40
 6
 7 12 13 14 35 41
 7
 3 14 25 26 27 28 39
 9
 3 7 8 10 14 28 35 41 47
 8
 1 3 7 14 20 21 28 40
 3
 12 30 37
 4
 23 24 28 29
 6
 7 12 13 14 35 41
 7
 3 14 25 26 27 28 39
 9
 3 6 7 10 14 28 29 46 47
 8
 1 3 7 14 20 21 28 40
 7
 3 7 14 16 24 28 35
 9
 7 14 28 29 31 32 40 44 46
 3
 12 30 37
 7
 3 14 25 26 27 28 39
 6
 7 12 13 14 35 41
 9
 3 6 7 10 14 28 29 46 47
 8
 1 3 7 14 20 21 28 40
 4
 23 24 28 29
 9
 7 14 28 29 32 39 44 46 50
 7
 3 14 25 26 27 28 39
 6
 7 12 13 14 35 41
 9
 3 6 7 10 14 28 29 46 47
 8
 1 3 7 14 20 21 28 40
 7
 3 7 14 16 24 28 35
 8
 3 7 14 18 28 34 39 49
 3
 12 30 37
 7
 3 14 25 26 27 28 39
 9
 7 14 28 29 31 32 40 44 46
 8
 3 7 8 14 17 28 33 35
 10
 3 7 8 10 14 28 32 39 42 47
 8
 1 3 7 14 20 21 28 40
 6
 7 12 13 14 35 41
 4
 23 24 28 29
 8
 3 7 14 18 28 34 39 49
 9
 3 4 7 8 11 14 26 28 35
 3
 12 30 37
 9
 3 7 14 26 28 32 35 36 43
 8
 3 7 8 14 28 33 35 45
 9
 3 6 7 10 14 28 29 46 47
 8
 1 3 7 14 20 21 28 40
 7
 3 7 8 14 24 28 38
 6
 7 12 13 14 35 41
 8
 3 7 14 18 28 34 39 49
 9
 3 4 7 8 11 14 26 28 35
 7
 3 14 26 28 32 36 42
 9
 3 7 8 14 28 33 35 40 48
 7
 3 14 22 28 40 46 48
 3
 12 30 37
 9
 3 7 8 14 15 22 28 35 37
 11
 3 7 8 10 14 28 32 35 39 43 47
 9
 3 5 7 14 28 29 35 37 48
 8
 1 3 7 14 20 21 28 40
 7
 3 7 14 16 24 28 35
 8
 3 7 14 18 28 34 39 49
 7
 3 14 25 26 27 28 39
 9
 3 4 7 11 14 26 28 29 35
 6
 6 7 12 13 14 46
 8
 2 3 14 19 26 28 36 46
 6
 17 28 29 32 40 45
 9
 3 7 8 14 15 22 28 35 37
 9
 3 7 8 9 14 28 33 35 40
 3
 12 30 37
 10
 3 7 8 10 14 28 32 39 42 47
 9
 3 5 7 14 28 29 35 37 48
 8
 1 3 7 14 20 21 28 40
 9
 3 7 14 28 32 37 40 43 44
 4
 23 24 28 29
 8
 3 7 14 18 28 34 39 49
 9
 3 4 7 11 14 26 28 29 35
 6
 7 12 13 14 35 41
 8
 3 14 19 26 28 36 39 50
 6
 17 28 29 32 40 45
 9
 3 7 8 14 15 22 28 35 37
 9
 3 7 8 9 14 26 28 33 35
 9
 3 6 7 10 14 28 29 46 47
 9
 3 5 7 14 28 29 32 35 48
 8
 1 3 7 14 20 21 28 40
 3
 12 30 37
 7
 7 28 29 32 39 42 44
 7
 3 7 8 14 24 28 38
 7
 3 14 25 26 27 28 39
 8
 3 7 14 18 28 34 39 49
 9
 3 4 7 8 11 14 26 28 35
 9
 3 7 14 26 28 32 35 36 43
 6
 7 12 13 14 35 41
 6
 17 28 29 32 40 45
 7
 3 7 14 16 24 28 35
 9
 3 7 8 14 15 22 28 35 37
 9
 3 7 8 9 14 28 33 35 40
 9
 3 6 7 10 14 28 29 46 47
 9
 3 5 7 14 28 29 35 37 48
 8
 1 3 7 14 20 21 28 40
 6
 7 19 28 29 42 44
 3
 12 30 37
 8
 3 7 14 18 28 34 39 49
 9
 3 4 7 8 11 14 26 28 35
 9
 3 7 14 19 23 28 29 38 39
 7
 3 14 25 26 27 28 39
 8
 2 3 14 26 28 32 36 50
 6
 17 28 29 32 40 45
 6
 7 12 13 14 35 41
 7
 3 7 14 16 24 28 35
 9
 3 7 8 14 15 22 28 35 37
 9
 3 7 8 9 14 28 33 35 40
 6
 10 31 35 38 39 47
 9
 3 5 7 14 28 29 35 37 48
 7
 4 20 21 28 32 40 43
 6
 6 7 28 29 44 46
 8
 3 7 14 18 28 34 39 49
 9
 3 4 7 8 11 14 26 28 35
 3
 12 30 37
 7
 2 3 14 16 23 28 46
 10
 3 7 14 26 28 31 32 35 36 39
 6
 17 28 29 32 40 45
 7
 3 14 25 26 27 28 39
 6
 7 12 13 14 35 41
 9
 3 7 8 14 15 22 28 35 37
 9
 3 7 8 9 14 28 33 35 40
 9
 3 7 8 10 14 28 42 46 47
 9
 3 5 7 14 28 29 35 37 48
 8
 1 3 7 14 20 21 28 40
 8
 3 7 14 28 40 43 44 46
 4
 23 24 28 29
 8
 3 7 14 18 28 34 39 49
 9
 3 4 7 8 11 14 26 28 35
 3
 12 30 37
 8
 3 14 19 26 28 36 39 50
 6
 17 28 29 32 40 45
 8
 3 7 14 15 28 31 35 38
 8
 3 6 7 14 25 26 28 32
 6
 7 12 13 14 35 41
 7
 3 7 14 16 24 28 35
 9
 3 7 8 9 14 26 28 33 35
 6
 2 10 38 39 47 50
 9
 3 5 7 8 14 22 28 35 37
 8
 1 3 7 14 20 21 28 40
 6
 7 28 29 42 44 46
 8
 3 7 14 18 28 34 39 49
 9
 3 4 7 8 11 14 26 28 35
 7
 3 14 16 19 23 28 46
 3
 12 30 37
 9
 3 7 14 26 28 32 35 36 43
 6
 17 28 29 32 40 45
 7
 3 14 25 26 27 28 39
 6
 6 7 12 13 14 46
 9
 3 7 14 15 28 29 35 37 48
 9
 3 7 8 9 14 28 33 35 40
 5
 2 10 31 38 47
 9
 3 5 7 8 14 22 28 32 35
 8
 1 3 7 14 20 21 28 40
 6
 7 28 29 42 44 46
 4
 23 24 28 29
 8
 3 7 14 18 28 34 39 49
 9
 3 4 7 8 11 14 26 28 35
 9
 3 7 14 26 28 32 35 36 43
 3
 12 30 37
 6
 17 28 29 32 40 45
 7
 3 14 25 26 27 28 39
 6
 7 12 13 14 35 41
 7
 3 7 14 16 24 28 35
 9
 3 7 14 15 28 29 35 37 48
 9
 3 7 8 9 14 28 33 35 40
 9
 3 6 7 10 14 28 29 46 47
 9
 3 5 7 8 14 22 28 35 37
 8
 1 3 7 14 20 21 28 40
 6
 7 19 28 29 42 44
 8
 3 7 14 18 28 34 39 49
 9
 3 4 7 8 11 14 26 28 35
 9
 3 7 8 14 19 23 28 38 39
 8
 2 3 14 26 28 32 36 50
 3
 12 30 37
 6
 17 28 29 32 40 45
 7
 3 14 25 26 27 28 39
 6
 7 12 13 14 35 41
 7
 3 7 14 16 24 28 35
 9
 3 7 14 15 28 29 35 37 48
 9
 3 7 8 9 14 28 33 35 40
 6
 10 31 35 38 39 47
 9
 3 5 7 8 14 22 28 32 35
 7
 4 20 21 28 32 40 43
 6
 6 7 28 29 44 46
 8
 3 7 14 18 28 34 39 49
 9
 3 4 7 8 11 14 26 28 35
 7
 2 3 14 16 23 28 46
 10
 3 7 14 26 28 31 32 35 36 39
 6
 17 28 29 32 40 45
 3
 12 30 37
 7
 3 14 25 26 27 28 39
 6
 7 12 13 14 35 41
 9
 3 7 14 15 28 29 35 37 48
 9
 3 7 8 9 14 28 33 35 40
 9
 3 7 8 10 14 28 42 46 47
 9
 3 5 7 8 14 22 28 35 37
 8
 1 3 7 14 20 21 28 40
 8
 3 7 14 28 40 43 44 46
 4
 23 24 28 29
 8
 3 7 14 18 28 34 39 49
 9
 3 4 7 8 11 14 26 28 35
 8
 3 14 19 26 28 36 39 50
 6
 17 28 29 32 40 45
 3
 12 30 37
 8
 3 7 14 15 28 35 38 50
 8
 3 6 7 14 25 26 28 32
 6
 7 12 13 14 35 41
 7
 3 7 14 16 24 28 35
 9
 3 7 8 9 14 28 33 35 40
 5
 2 10 31 38 47
 9
 3 5 7 14 28 29 35 37 48
 8
 1 3 7 14 20 21 28 40
 6
 7 28 29 42 44 46
 8
 3 7 14 18 28 34 39 49
 9
 3 4 7 8 11 14 26 28 35
 7
 3 14 16 19 23 28 46
 9
 3 7 14 26 28 32 35 36 43
 6
 17 28 29 32 40 45
 9
 3 7 8 14 22 28 33 35 40
 3
 12 30 37
 7
 3 14 25 26 27 28 39
 6
 6 7 12 13 14 46
 9
 3 7 14 15 28 29 35 37 48
 9
 3 7 8 9 14 26 28 33 35
 6
 2 10 38 39 47 50
 9
 3 5 7 8 14 22 28 35 37
 8
 1 3 7 14 20 21 28 40
 9
 7 14 28 29 31 39 40 44 46
 4
 23 24 28 29
 8
 3 7 14 18 28 34 39 49
 9
 3 4 7 8 11 14 26 28 35
 7
 3 14 26 28 32 36 42
 6
 17 28 29 32 40 45
 3
 12 30 37
 7
 3 14 25 26 27 28 39
 7
 3 7 14 16 24 28 35
 6
 7 12 13 14 35 41
 9
 3 7 14 15 28 29 35 37 48
 9
 3 7 8 9 14 28 33 35 40
 10
 3 7 8 10 14 28 35 43 46 47
 9
 3 5 7 8 14 22 28 32 35
 8
 3 6 7 14 20 21 28 50
 6
 7 19 28 29 42 44
 8
 3 7 14 18 28 34 39 49
 9
 3 4 7 8 11 14 26 28 35
 9
 3 7 14 19 23 28 29 38 39
 8
 2 3 14 26 28 32 36 50
 6
 17 28 29 32 40 45
 3
 12 30 37
 7
 3 14 25 26 27 28 39
 7
 3 7 14 16 24 28 35
 6
 7 12 13 14 35 41
 9
 3 7 14 15 28 29 35 37 48
 9
 3 7 8 9 14 28 33 35 40
 6
 10 31 35 38 39 47
 9
 3 5 7 8 14 22 28 35 37
 8
 1 3 7 14 20 21 28 40
 8
 3 7 14 28 40 43 44 46
 8
 3 7 14 18 28 34 39 49
 9
 3 4 7 8 11 14 26 28 35
 7
 2 3 14 16 23 28 46
 7
 3 6 7 14 26 28 36
 6
 17 28 29 32 40 45
 3
 12 30 37
 7
 3 14 25 26 27 28 39
 6
 7 12 13 14 35 41
 9
 3 7 14 15 28 29 32 35 48
 9
 3 7 8 9 14 28 33 35 40
 6
 10 31 35 38 39 47
 9
 3 5 7 8 14 22 28 35 37
 8
 1 3 7 14 20 21 28 40
 6
 7 28 29 42 44 46
 4
 23 24 28 29
 8
 3 7 14 18 28 34 39 49
 9
 3 4 7 8 11 14 26 28 35
 9
 3 7 14 26 28 32 35 36 43
 6
 6 7 28 29 44 46
 6
 17 28 29 32 40 45
 3
 12 30 37
 8
 3 14 19 25 26 28 46 50
 7
 3 7 14 16 24 28 35
 6
 7 12 13 14 35 41
 9
 3 7 14 15 28 29 35 37 48
 9
 3 7 8 9 14 28 33 35 40
 5
 2 10 31 38 47
 9
 3 5 7 8 14 22 28 32 35
 8
 1 3 7 14 20 21 28 40
 8
 3 7 14 18 28 34 39 49
 9
 3 4 7 8 11 14 26 28 35
 7
 3 14 16 19 23 28 46
 8
 3 14 26 28 31 41 42 43
 7
 3 6 7 14 26 28 36
 6
 17 28 29 32 40 45
 3
 12 30 37
 7
 3 14 25 26 27 28 39
 6
 2 12 13 14 46 50
 9
 3 7 14 15 28 29 35 37 48
 9
 3 7 8 9 14 28 33 35 40
 9
 3 7 8 10 14 28 42 46 47
 9
 3 5 7 8 14 22 28 32 35
 8
 1 3 7 14 20 21 28 40
 8
 3 7 14 28 40 43 44 46
 4
 23 24 28 29
 8
 3 7 14 18 28 34 39 49
 9
 3 4 7 8 11 14 26 28 35
 8
 3 14 19 26 28 32 36 50
 6
 6 7 28 29 44 46
 6
 17 28 29 32 40 45
 8
 3 7 14 15 28 31 35 38
 3
 12 30 37
 7
 3 14 25 26 27 28 39
 7
 3 7 14 16 24 28 35
 6
 7 12 13 14 35 41
 9
 3 7 8 9 14 28 33 35 40
 6
 2 10 38 39 47 50
 9
 3 5 7 14 28 29 35 37 48
 8
 1 3 7 14 20 21 28 40
 8
 3 7 14 18 28 34 39 49
 9
 3 4 7 8 11 14 26 28 35
 7
 3 14 16 19 23 28 46
 8
 3 14 26 28 31 41 42 43
 7
 3 6 7 14 26 28 36
 6
 17 28 29 32 40 45
 7
 3 14 22 28 40 46 48
 3
 12 30 37
 7
 3 14 25 26 27 28 39
 6
 2 12 13 14 46 50
 9
 3 7 8 14 15 22 28 35 37
 9
 3 7 8 9 14 28 33 35 40
 9
 3 7 8 10 14 28 42 46 47
 9
 3 5 7 14 28 29 32 35 48
 8
 1 3 7 14 20 21 28 40
 8
 3 7 14 28 40 43 44 46
 4
 23 24 28 29
 8
 3 7 14 18 28 34 39 49
 9
 3 4 7 8 11 14 26 28 35
 8
 2 3 14 19 26 28 36 46
 7
 3 6 7 14 26 28 36
 6
 17 28 29 32 40 45
 8
 3 7 14 15 28 31 35 38
 3
 12 30 37
 7
 3 14 25 26 27 28 39
 7
 3 7 14 16 24 28 35
 6
 7 12 13 14 35 41
 9
 3 7 8 9 14 28 33 35 40
 9
 3 7 8 10 14 28 42 46 47
 9
 3 5 7 8 14 22 28 35 37
 8
 1 3 7 14 20 21 28 40
 8
 3 7 14 28 40 43 44 46
 8
 3 7 14 18 28 34 39 49
 8
 2 3 11 14 26 28 29 35
 9
 3 7 14 19 23 28 29 38 39
 7
 3 6 7 14 26 28 36
 6
 17 28 29 32 40 45
 3
 12 30 37
 7
 3 14 25 26 27 28 39
 7
 3 7 14 16 24 28 35
 9
 3 7 14 15 28 29 32 35 48
 6
 7 12 13 14 35 41
 9
 3 7 8 9 14 26 28 33 35
 6
 10 31 35 38 39 47
 9
 3 5 7 8 14 22 28 35 37
 8
 1 3 7 14 20 21 28 40
 6
 7 28 29 42 44 46
 8
 3 7 14 18 28 34 39 49
 9
 3 4 7 8 11 14 26 28 35
 7
 3 14 16 19 23 28 46
 11
 3 4 6 7 14 26 28 31 32 37 43
 6
 17 28 29 32 40 45
 3
 12 30 37
 7
 3 14 25 26 27 28 39
 9
 3 7 14 15 28 29 32 35 48
 6
 7 12 13 14 31 50
 9
 3 7 8 9 14 28 33 35 40
 6
 2 10 38 39 47 50
 9
 3 5 7 8 14 22 28 35 37
 8
 1 3 7 14 20 21 28 40
 6
 7 28 29 42 44 46
 4
 23 24 28 29
 8
 3 7 14 18 28 34 39 49
 9
 3 4 7 8 11 14 26 28 35
 9
 3 7 14 26 28 32 35 36 43
 7
 3 6 7 14 26 28 36
 6
 17 28 29 32 40 45
 3
 12 30 37
 7
 3 14 25 26 27 28 39
 9
 3 7 8 11 14 19 26 28 35
 7
 3 7 14 16 24 28 35
 9
 3 7 14 15 28 29 35 37 48
 6
 7 12 13 14 35 41
 9
 3 7 8 9 14 28 33 35 40
 6
 2 10 38 39 47 50
 9
 3 5 7 8 14 22 28 32 35
 8
 1 3 7 14 20 21 28 40
 6
 7 28 29 42 44 46
 8
 3 7 14 18 28 34 39 49
 7
 3 14 16 19 23 28 46
 11
 3 4 6 7 14 26 28 31 32 37 43
 6
 17 28 29 32 40 45
 7
 3 14 25 26 27 28 39
 3
 12 30 37
 9
 3 7 14 15 28 29 35 37 48
 6
 7 12 13 14 35 41
 9
 3 7 8 9 14 28 33 35 40
 6
 2 10 38 39 47 50
 9
 3 5 7 8 14 22 28 32 35
 8
 1 3 7 14 20 21 28 40
 6
 7 28 29 42 44 46
 4
 23 24 28 29
 8
 3 7 14 18 28 34 39 49
 9
 3 4 7 8 11 14 26 28 35
 9
 3 7 14 26 28 32 35 36 43
 7
 3 6 7 14 26 28 36
 6
 17 28 29 32 40 45
 7
 3 14 25 26 27 28 39
 3
 12 30 37
 9
 3 7 8 11 14 19 26 28 35
 7
 3 7 14 16 24 28 35
 9
 3 7 14 15 28 29 35 37 48
 6
 7 12 13 14 35 41
 9
 3 7 8 9 14 28 33 35 40
 6
 2 10 38 39 47 50
 9
 3 5 7 8 14 22 28 35 37
 8
 1 3 7 14 20 21 28 40
 9
 7 14 28 29 31 39 40 44 46
 8
 3 7 14 18 28 34 39 49
 7
 3 14 16 19 23 28 46
 8
 3 14 26 28 31 41 42 43
 7
 3 6 7 14 26 28 36
 6
 17 28 29 32 40 45
 7
 3 14 25 26 27 28 39
 3
 12 30 37
 9
 3 7 14 15 28 29 32 35 48
 6
 7 12 13 14 35 41
 9
 3 7 8 9 14 28 33 35 40
 6
 2 10 38 39 47 50
 9
 3 5 7 8 14 22 28 35 37
 8
 1 3 7 14 20 21 28 40
 6
 7 28 29 42 44 46
 4
 23 24 28 29
 8
 3 7 14 18 28 34 39 49
 9
 3 4 7 8 11 14 26 28 35
 11
 3 4 6 7 14 26 28 31 32 37 43
 6
 17 28 29 32 40 45
 7
 3 14 25 26 27 28 39
 3
 12 30 37
 9
 3 7 8 11 14 19 26 28 35
 7
 3 7 14 16 24 28 35
 9
 3 7 14 15 28 29 32 35 48
 6
 7 12 13 14 35 41
 9
 3 7 8 9 14 28 33 35 40
 6
 2 10 38 39 47 50
 9
 3 5 7 8 14 22 28 35 37
 8
 1 3 7 14 20 21 28 40
 6
 7 28 29 42 44 46
 8
 3 7 14 18 28 34 39 49
 7
 3 14 16 19 23 28 46
 9
 3 7 14 26 28 32 35 36 43
 7
 3 6 7 14 26 28 36
 6
 17 28 29 32 40 45
 7
 3 14 25 26 27 28 39
 3
 12 30 37
 9
 3 7 14 15 28 29 35 37 48
 6
 7 12 13 14 35 41
 9
 3 7 8 9 14 28 33 35 40
 6
 2 10 38 39 47 50
 9
 3 5 7 8 14 22 28 32 35
 8
 1 3 7 14 20 21 28 40
 9
 7 14 28 29 31 39 40 44 46
 4
 23 24 28 29
 8
 3 7 14 18 28 34 39 49
 9
 3 4 7 8 11 14 26 28 35
 8
 3 14 26 28 31 41 42 43
 7
 3 6 7 14 26 28 36
 6
 17 28 29 32 40 45
 7
 3 14 25 26 27 28 39
 3
 12 30 37
 9
 3 7 8 11 14 19 26 28 35
 7
 3 7 14 16 24 28 35
 9
 3 7 14 15 28 29 35 37 48
 6
 2 12 13 14 46 50
 9
 3 7 8 9 14 28 33 35 40
 9
 3 7 8 10 14 28 42 46 47
 9
 3 5 7 8 14 22 28 32 35
 8
 1 3 7 14 20 21 28 40
 8
 3 7 14 28 40 43 44 46
 8
 3 7 14 18 28 34 39 49
 9
 3 7 8 14 19 23 28 38 39
 7
 3 6 7 14 26 28 36
 6
 17 28 29 32 40 45
 7
 3 14 25 26 27 28 39
 3
 12 30 37
 7
 3 7 14 16 24 28 35
 9
 3 7 14 15 28 29 35 37 48
 6
 7 12 13 14 35 41
 9
 3 7 8 9 14 28 33 35 40
 6
 2 10 38 39 47 50
 9
 3 5 7 8 14 22 28 32 35
 8
 1 3 7 14 20 21 28 40
 9
 7 14 28 29 31 39 40 44 46
 8
 3 7 14 18 28 34 39 49
 9
 3 4 7 8 11 14 26 28 35
 7
 3 14 16 19 23 28 46
 8
 3 14 26 28 31 41 42 43
 7
 3 6 7 14 26 28 36
 6
 17 28 29 32 40 45
 7
 3 14 25 26 27 28 39
 3
 12 30 37
 9
 3 7 14 15 28 29 35 37 48
 6
 2 12 13 14 46 50
 9
 3 7 8 9 14 28 33 35 40
 9
 3 7 8 10 14 28 42 46 47
 9
 3 5 7 8 14 22 28 32 35
 8
 1 3 7 14 20 21 28 40
 8
 3 7 14 28 40 43 44 46
 4
 23 24 28 29
 8
 3 7 14 18 28 34 39 49
 9
 3 4 7 8 11 14 26 28 35
 7
 3 6 7 14 26 28 36
 6
 17 28 29 32 40 45
 8
 3 7 14 15 28 31 35 38
 7
 3 14 25 26 27 28 39
 3
 12 30 37
 9
 3 7 8 11 14 19 26 28 35
 7
 3 7 14 16 24 28 35
 6
 7 12 13 14 35 41
 9
 3 7 8 9 14 28 33 35 40
 6
 2 10 38 39 47 50
 9
 3 5 7 14 28 29 35 37 48
 8
 1 3 7 14 20 21 28 40
 6
 7 28 29 42 44 46
 8
 3 7 14 18 28 34 39 49
 7
 3 14 16 19 23 28 46
 11
 3 4 6 7 14 26 28 31 32 37 43
 6
 17 28 29 32 40 45
 7
 3 14 22 28 40 46 48
 7
 3 14 25 26 27 28 39
 3
 12 30 37
 9
 3 7 8 14 15 22 28 32 35
 6
 7 12 13 14 35 41
 9
 3 7 8 9 14 28 33 35 40
 6
 2 10 38 39 47 50
 9
 3 5 7 14 28 29 35 37 48
 8
 1 3 7 14 20 21 28 40
 6
 7 28 29 42 44 46
 4
 23 24 28 29
 8
 3 7 14 18 28 34 39 49
 9
 3 4 7 8 11 14 26 28 35
 9
 3 7 14 26 28 32 35 36 43
 7
 3 6 7 14 26 28 36
 6
 17 28 29 32 40 45
 7
 3 14 25 26 27 28 39
 3
 12 30 37
 9
 3 7 8 11 14 19 26 28 35
 7
 3 7 14 16 24 28 35
 9
 3 7 8 14 15 22 28 35 37
 6
 7 12 13 14 35 41
 9
 3 7 8 9 14 28 33 35 40
 6
 2 10 38 39 47 50
 9
 3 5 7 14 28 29 32 35 48
 8
 1 3 7 14 20 21 28 40
 9
 7 14 28 29 31 39 40 44 46
 8
 3 7 14 18 28 34 39 49
 7
 3 14 16 19 23 28 46
 8
 3 14 26 28 31 41 42 43
 7
 3 6 7 14 26 28 36
 6
 17 28 29 32 40 45
 7
 3 14 25 26 27 28 39
 3
 12 30 37
 9
 3 7 8 14 15 22 28 35 37
 6
 2 12 13 14 46 50
 9
 3 7 8 9 14 28 33 35 40
 9
 3 7 8 10 14 28 42 46 47
 9
 3 5 7 14 28 29 32 35 48
 8
 1 3 7 14 20 21 28 40
 8
 3 7 14 28 40 43 44 46
 4
 23 24 28 29
 8
 3 7 14 18 28 34 39 49
 9
 3 4 7 8 11 14 26 28 35
 7
 3 6 7 14 26 28 36
 6
 17 28 29 32 40 45
 8
 3 7 14 15 28 31 35 38
 7
 3 14 25 26 27 28 39
 3
 12 30 37
 9
 3 7 8 11 14 19 26 28 35
 7
 3 7 14 16 24 28 35
 6
 7 12 13 14 35 41
 9
 3 7 8 9 14 28 33 35 40
 6
 2 10 38 39 47 50
 9
 3 5 7 8 14 22 28 35 37
 8
 1 3 7 14 20 21 28 40
 6
 7 28 29 42 44 46
 8
 3 7 14 18 28 34 39 49
 7
 3 14 16 19 23 28 46
 11
 3 4 6 7 14 26 28 31 32 37 43
 6
 17 28 29 32 40 45
 7
 3 14 25 26 27 28 39
 3
 12 30 37
 9
 3 7 14 15 28 29 32 35 48
 6
 7 12 13 14 35 41
 9
 3 7 8 9 14 28 33 35 40
 6
 2 10 38 39 47 50
 9
 3 5 7 8 14 22 28 35 37
 8
 1 3 7 14 20 21 28 40
 6
 7 28 29 42 44 46
 4
 23 24 28 29
 8
 3 7 14 18 28 34 39 49
 9
 3 4 7 8 11 14 26 28 35
 9
 3 7 14 26 28 32 35 36 43
 7
 3 6 7 14 26 28 36
 6
 17 28 29 32 40 45
 7
 3 14 25 26 27 28 39
 3
 12 30 37
 9
 3 7 8 11 14 19 26 28 35
 7
 3 7 14 16 24 28 35
 9
 3 7 14 15 28 29 35 37 48
 6
 7 12 13 14 35 41
 9
 3 7 8 9 14 28 33 35 40
 6
 2 10 38 39 47 50
 9
 3 5 7 8 14 22 28 32 35
 8
 1 3 7 14 20 21 28 40
 9
 7 14 28 29 31 39 40 44 46
 8
 3 7 14 18 28 34 39 49
 7
 3 14 16 19 23 28 46
 8
 3 14 26 28 31 41 42 43
 7
 3 6 7 14 26 28 36
 6
 17 28 29 32 40 45
 7
 3 14 25 26 27 28 39
 3
 12 30 37
 9
 3 7 14 15 28 29 35 37 48
 6
 2 12 13 14 46 50
 9
 3 7 8 9 14 28 33 35 40
 9
 3 7 8 10 14 28 42 46 47
 9
 3 5 7 8 14 22 28 32 35
 8
 1 3 7 14 20 21 28 40
 8
 3 7 14 28 40 43 44 46
 4
 23 24 28 29
 8
 3 7 14 18 28 34 39 49
 9
 3 4 7 8 11 14 26 28 35
 7
 3 6 7 14 26 28 36
 6
 17 28 29 32 40 45
 8
 3 7 14 15 28 31 35 38
 7
 3 14 25 26 27 28 39
 3
 12 30 37
 9
 3 7 8 11 14 19 26 28 35
 7
 3 7 14 16 24 28 35
 6
 7 12 13 14 35 41
 9
 3 7 8 9 14 28 33 35 40
 6
 2 10 38 39 47 50
 9
 3 5 7 14 28 29 35 37 48
 8
 1 3 7 14 20 21 28 40
 6
 7 28 29 42 44 46
 8
 3 7 14 18 28 34 39 49
 7
 3 14 16 19 23 28 46
 11
 3 4 6 7 14 26 28 31 32 37 43
 6
 17 28 29 32 40 45
 7
 3 14 22 28 40 46 48
 7
 3 14 25 26 27 28 39
 3
 12 30 37
 9
 3 7 8 14 15 22 28 32 35
 6
 7 12 13 14 35 41
 9
 3 7 8 9 14 28 33 35 40
 6
 2 10 38 39 47 50
 9
 3 5 7 14 28 29 35 37 48
 8
 1 3 7 14 20 21 28 40
 6
 7 28 29 42 44 46
 4
 23 24 28 29
 8
 3 7 14 18 28 34 39 49
 9
 3 4 7 8 11 14 26 28 35
 9
 3 7 14 26 28 32 35 36 43
 7
 3 6 7 14 26 28 36
 6
 17 28 29 32 40 45
 7
 3 14 25 26 27 28 39
 3
 12 30 37
 9
 3 7 8 11 14 19 26 28 35
 7
 3 7 14 16 24 28 35
 9
 3 7 8 14 15 22 28 35 37
 6
 7 12 13 14 35 41
 9
 3 7 8 9 14 28 33 35 40
 6
 2 10 38 39 47 50
 9
 3 5 7 14 28 29 32 35 48
 8
 1 3 7 14 20 21 28 40
 9
 7 14 28 29 31 39 40 44 46
 8
 3 7 14 18 28 34 39 49
 7
 3 14 16 19 23 28 46
 8
 3 14 26 28 31 41 42 43
 7
 3 6 7 14 26 28 36
 6
 17 28 29 32 40 45
 7
 3 14 25 26 27 28 39
 3
 12 30 37
 9
 3 7 8 14 15 22 28 35 37
 6
 2 12 13 14 46 50
 9
 3 7 8 9 14 28 33 35 40
 9
 3 7 8 10 14 28 42 46 47
 9
 3 5 7 14 28 29 32 35 48
 8
 1 3 7 14 20 21 28 40
 8
 3 7 14 28 40 43 44 46
 4
 23 24 28 29
 8
 3 7 14 18 28 34 39 49
 9
 3 4 7 8 11 14 26 28 35
 7
 3 6 7 14 26 28 36
 6
 17 28 29 32 40 45
 8
 3 7 14 15 28 31 35 38
 7
 3 14 25 26 27 28 39
 3
 12 30 37
 9
 3 7 8 11 14 19 26 28 35
 7
 3 7 14 16 24 28 35
 6
 7 12 13 14 35 41
 9
 3 7 8 9 14 28 33 35 40
 6
 2 10 38 39 47 50
 9
 3 5 7 8 14 22 28 35 37
 8
 1 3 7 14 20 21 28 40
 6
 7 28 29 42 44 46
 8
 3 7 14 18 28 34 39 49
 7
 3 14 16 19 23 28 46
 11
 3 4 6 7 14 26 28 31 32 37 43
 6
 17 28 29 32 40 45
 7
 3 14 25 26 27 28 39
 3
 12 30 37
 9
 3 7 14 15 28 29 32 35 48
 6
 7 12 13 14 35 41
 9
 3 7 8 9 14 28 33 35 40
 6
 2 10 38 39 47 50
 9
 3 5 7 8 14 22 28 35 37
 8
 1 3 7 14 20 21 28 40
 6
 7 28 29 42 44 46
 4
 23 24 28 29
 8
 3 7 14 18 28 34 39 49
 9
 3 4 7 8 11 14 26 28 35
 9
 3 7 14 26 28 32 35 36 43
 7
 3 6 7 14 26 28 36
 6
 17 28 29 32 40 45
 7
 3 14 25 26 27 28 39
 3
 12 30 37
 9
 3 7 8 11 14 19 26 28 35
 7
 3 7 14 16 24 28 35
 9
 3 7 14 15 28 29 35 37 48
 6
 7 12 13 14 35 41
 9
 3 7 8 9 14 28 33 35 40
 6
 2 10 38 39 47 50
 9
 3 5 7 8 14 22 28 32 35
 8
 1 3 7 14 20 21 28 40
 9
 7 14 28 29 31 39 40 44 46
 8
 3 7 14 18 28 34 39 49
 7
 3 14 16 19 23 28 46
 8
 3 14 26 28 31 41 42 43
 7
 3 6 7 14 26 28 36
 6
 17 28 29 32 40 45
 7
 3 14 25 26 27 28 39
 3
 12 30 37
 9
 3 7 14 15 28 29 35 37 48
 6
 2 12 13 14 46 50
 9
 3 7 8 9 14 28 33 35 40
 9
 3 7 8 10 14 28 42 46 47
 9
 3 5 7 8 14 22 28 32 35
 8
 1 3 7 14 20 21 28 40
 8
 3 7 14 28 40 43 44 46
 4
 23 24 28 29
 8
 3 7 14 18 28 34 39 49
 9
 3 4 7 8 11 14 26 28 35
 7
 3 6 7 14 26 28 36
 6
 17 28 29 32 40 45
 8
 3 7 14 15 28 31 35 38
 7
 3 14 25 26 27 28 39
 3
 12 30 37
 9
 3 7 8 11 14 19 26 28 35
 7
 3 7 14 16 24 28 35
 6
 7 12 13 14 35 41
 9
 3 7 8 9 14 28 33 35 40
 6
 2 10 38 39 47 50
 9
 3 5 7 14 28 29 35 37 48
 8
 1 3 7 14 20 21 28 40
 6
 7 28 29 42 44 46
 8
 3 7 14 18 28 34 39 49
 7
 3 14 16 19 23 28 46
 11
 3 4 6 7 14 26 28 31 32 37 43
 6
 17 28 29 32 40 45
 7
 3 14 22 28 40 46 48
 7
 3 14 25 26 27 28 39
 3
 12 30 37
 9
 3 7 8 14 15 22 28 32 35
 6
 7 12 13 14 35 41
 9
 3 7 8 9 14 26 28 33 35
 6
 2 10 38 39 47 50
 9
 3 5 7 14 28 29 35 37 48
 8
 1 3 7 14 20 21 28 40
 6
 7 28 29 42 44 46
 4
 23 24 28 29
 8
 3 7 14 18 28 34 39 49
 9
 3 4 7 8 11 14 26 28 35
 9
 3 7 14 26 28 32 35 36 43
 7
 3 6 7 14 26 28 36
 6
 17 28 29 32 40 45
 7
 3 14 25 26 27 28 39
 3
 12 30 37
 9
 3 7 8 11 14 19 26 28 35
 7
 3 7 14 16 24 28 35
 9
 3 7 8 14 15 22 28 35 37
 6
 7 12 13 14 35 41
 9
 3 7 8 9 14 28 33 35 40
 6
 2 10 38 39 47 50
 9
 3 5 7 14 28 29 32 35 48
 8
 1 3 7 14 20 21 28 40
 9
 7 14 28 29 31 39 40 44 46
 8
 3 7 14 18 28 34 39 49
 7
 3 14 16 19 23 28 46
 8
 3 14 26 28 31 41 42 43
 7
 3 6 7 14 26 28 36
 6
 17 28 29 32 40 45
 7
 3 14 25 26 27 28 39
 3
 12 30 37
 9
 3 7 8 14 15 22 28 35 37
 6
 2 12 13 14 46 50
 9
 3 7 8 9 14 28 33 35 40
 9
 3 7 8 10 14 28 42 46 47
 9
 3 5 7 14 28 29 32 35 48
 8
 1 3 7 14 20 21 28 40
 8
 3 7 14 28 40 43 44 46
 4
 23 24 28 29
 8
 3 7 14 18 28 34 39 49
 9
 3 4 7 8 11 14 26 28 35
 7
 3 6 7 14 26 28 36
 6
 17 28 29 32 40 45
 8
 3 7 14 15 28 31 35 38
 7
 3 14 25 26 27 28 39
 3
 12 30 37
 9
 3 7 8 11 14 19 26 28 35
 7
 3 7 14 16 24 28 35
 6
 7 12 13 14 35 41
 9
 3 7 8 9 14 28 33 35 40
 6
 2 10 38 39 47 50
 9
 3 5 7 8 14 22 28 35 37
 8
 1 3 7 14 20 21 28 40
 6
 7 28 29 42 44 46
 8
 3 7 14 18 28 34 39 49
 7
 3 14 16 19 23 28 46
 11
 3 4 6 7 14 26 28 31 32 37 43
 6
 17 28 29 32 40 45
 7
 3 14 25 26 27 28 39
 3
 12 30 37
 9
 3 7 14 15 28 29 32 35 48
 6
 7 12 13 14 35 41
 9
 3 7 8 9 14 28 33 35 40
 6
 2 10 38 39 47 50
 9
 3 5 7 8 14 22 28 35 37
 8
 1 3 7 14 20 21 28 40
 6
 7 28 29 42 44 46
 4
 23 24 28 29
 8
 3 7 14 18 28 34 39 49
 9
 3 4 7 8 11 14 26 28 35
 9
 3 7 14 26 28 32 35 36 43
 7
 3 6 7 14 26 28 36
 6
 17 28 29 32 40 45
 7
 3 14 25 26 27 28 39
 3
 12 30 37
 9
 3 7 8 11 14 19 26 28 35
 7
 3 7 14 16 24 28 35
 9
 3 7 14 15 28 29 35 37 48
 6
 7 12 13 14 35 41
 9
 3 7 8 9 14 28 33 35 40
 6
 2 10 38 39 47 50
 9
 3 5 7 8 14 22 28 32 35
 8
 1 3 7 14 20 21 28 40
 9
 7 14 28 29 31 39 40 44 46
 8
 3 7 14 18 28 34 39 49
 7
 3 14 16 19 23 28 46
 8
 3 14 26 28 31 41 42 43
 7
 3 6 7 14 26 28 36
 6
 17 28 29 32 40 45
 7
 3 14 25 26 27 28 39
 3
 12 30 37
 9
 3 7 14 15 28 29 35 37 48
 6
 2 12 13 14 46 50
 9
 3 7 8 9 14 28 33 35 40
 9
 3 7 8 10 14 28 42 46 47
 9
 3 5 7 8 14 22 28 32 35
 8
 1 3 7 14 20 21 28 40
 8
 3 7 14 28 40 43 44 46
 4
 23 24 28 29
 8
 3 7 14 18 28 34 39 49
 9
 3 4 7 8 11 14 26 28 35
 7
 3 6 7 14 26 28 36
 6
 17 28 29 32 40 45
 8
 3 7 14 15 28 31 35 38
 7
 3 14 25 26 27 28 39
 3
 12 30 37
 9
 3 7 8 11 14 19 26 28 35
 7
 3 7 14 16 24 28 35
 6
 7 12 13 14 35 41
 9
 3 7 8 9 14 28 33 35 40
 6
 2 10 38 39 47 50
 9
 3 5 7 14 28 29 35 37 48
 8
 1 3 7 14 20 21 28 40
 6
 7 28 29 42 44 46
 8
 3 7 14 18 28 34 39 49
 7
 3 14 16 19 23 28 46
 11
 3 4 6 7 14 26 28 31 32 37 43
 6
 17 28 29 32 40 45
 7
 3 14 22 28 40 46 48
 7
 3 14 25 26 27 28 39
 3
 12 30 37
 9
 3 7 8 14 15 22 28 32 35
 6
 7 12 13 14 35 41
 9
 3 7 8 9 14 28 33 35 40
 6
 2 10 38 39 47 50
 9
 3 5 7 14 28 29 35 37 48
 8
 1 3 7 14 20 21 28 40
 6
 7 28 29 42 44 46
 4
 23 24 28 29
 8
 3 7 14 18 28 34 39 49
 9
 3 4 7 8 11 14 26 28 35
 9
 3 7 14 26 28 32 35 36 43
 7
 3 6 7 14 26 28 36
 6
 17 28 29 32 40 45
 7
 3 14 25 26 27 28 39
 3
 12 30 37
 9
 3 7 8 11 14 19 26 28 35
 7
 3 7 14 16 24 28 35
 9
 3 7 8 14 15 22 28 35 37
 6
 7 12 13 14 35 41
 9
 3 7 8 9 14 28 33 35 40
 6
 2 10 38 39 47 50
 9
 3 5 7 14 28 29 32 35 48
 8
 1 3 7 14 20 21 28 40
 9
 7 14 28 29 31 39 40 44 46
 8
 3 7 14 18 28 34 39 49
 7
 3 14 16 19 23 28 46
 8
 3 14 26 28 31 41 42 43
 7
 3 6 7 14 26 28 36
 6
 17 28 29 32 40 45
 7
 3 14 25 26 27 28 39
 3
 12 30 37
 9
 3 7 8 14 15 22 28 35 37
 6
 2 12 13 14 46 50
 9
 3 7 8 9 14 28 33 35 40
 9
 3 7 8 10 14 28 42 46 47
 9
 3 5 7 14 28 29 32 35 48
 8
 1 3 7 14 20 21 28 40
 8
 3 7 14 28 40 43 44 46
 4
 23 24 28 29
 8
 3 7 14 18 28 34 39 49
 9
 3 4 7 8 11 14 26 28 35
 7
 3 6 7 14 26 28 36
 6
 17 28 29 32 40 45
 8
 3 7 14 15 28 31 35 38
 7
 3 14 25 26 27 28 39
 3
 12 30 37
 9
 3 7 8 11 14 19 26 28 35
 7
 3 7 14 16 24 28 35
 6
 7 12 13 14 35 41
 9
 3 7 8 9 14 28 33 35 40
 6
 2 10 38 39 47 50
 9
 3 5 7 8 14 22 28 35 37
 8
 1 3 7 14 20 21 28 40
 6
 7 28 29 42 44 46
 8
 3 7 14 18 28 34 39 49
 7
 3 14 16 19 23 28 46
 11
 3 4 6 7 14 26 28 31 32 37 43
 6
 17 28 29 32 40 45
 7
 3 14 25 26 27 28 39
 3
 12 30 37
 9
 3 7 14 15 28 29 32 35 48
 6
 7 12 13 14 35 41
 9
 3 7 8 9 14 28 33 35 40
 6
 2 10 38 39 47 50
 9
 3 5 7 8 14 22 28 35 37
 8
 1 3 7 14 20 21 28 40
 6
 7 28 29 42 44 46
 4
 23 24 28 29
 8
 3 7 14 18 28 34 39 49
 9
 3 4 7 8 11 14 26 28 35
 9
 3 7 14 26 28 32 35 36 43
 7
 3 6 7 14 26 28 36
 6
 17 28 29 32 40 45
 7
 3 14 25 26 27 28 39
 3
 12 30 37
 9
 3 7 8 11 14 19 26 28 35
 7
 3 7 14 16 24 28 35
 9
 3 7 14 15 28 29 35 37 48
 6
 7 12 13 14 35 41
 9
 3 7 8 9 14 28 33 35 40
 6
 2 10 38 39 47 50
 9
 3 5 7 8 14 22 28 32 35
 8
 1 3 7 14 20 21 28 40
 9
 7 14 28 29 31 39 40 44 46
 8
 3 7 14 18 28 34 39 49
 7
 3 14 16 19 23 28 46
 10
 3 4 7 14 26 28 31 32 42 43
 7
 3 6 7 14 26 28 36
 6
 17 28 29 32 40 45
 7
 3 14 25 26 27 28 39
 3
 12 30 37
 9
 3 7 14 15 28 29 35 37 48
 6
 7 12 13 14 35 41
 9
 3 7 8 9 14 28 33 35 40
